(set-option :print-success false)
(set-logic QF_UF)
(declare-sort x8 0)
(declare-sort x145 0)
(declare-fun x138 () x145)
(declare-fun x38 () x145)
(declare-fun x54 () x145)
(declare-fun x105 () x145)
(declare-fun x100 () x145)
(declare-fun x29 (x145 x145) x145)
(assert (not (and (= x138 (x29 x54 x38)) (and (and (= x105 (x29 x100 x100)) (= x54 (x29 x105 x105))) (= x38 (x29 x54 x100))))))
(assert (not (and (= x38 (x29 x105 x100)) (and (and (= (x29 x138 x138) x54) (= (x29 x54 x54) x105)) (= x100 (x29 x105 x138))))))
(assert (not (and (and (and (= (x29 x54 x54) x105) (= (x29 x105 x105) x38)) (= (x29 x38 x54) x100)) (= (x29 x38 x100) x138))))
(assert (not (and (= x105 (x29 x100 x138)) (and (and (= (x29 x54 x54) x38) (= x100 (x29 x38 x38))) (= (x29 x100 x54) x138)))))
(assert (not (and (= x138 (x29 x54 x100)) (and (and (= x105 (x29 x38 x38)) (= (x29 x105 x105) x54)) (= (x29 x54 x38) x100)))))
(assert (not (and (and (= (x29 x38 x100) x54) (and (= (x29 x138 x138) x38) (= (x29 x100 x100) x138))) (= (x29 x38 x54) x105))))
(assert (not (and (and (and (= x54 (x29 x38 x38)) (= (x29 x100 x100) x38)) (= (x29 x54 x100) x105)) (= x138 (x29 x54 x105)))))
(assert (let ((x61 (x29 x138 x138)) (x148 (x29 x54 x54)) (x3 (x29 x100 x100)) (x83 (x29 x105 x105)) (x110 (x29 x38 x38))) (or (or (or (or (not (= (x29 x61 x61) x61)) (not (= x83 (x29 x83 x83)))) (not (= x3 (x29 x3 x3)))) (not (= x110 (x29 x110 x110)))) (not (= x148 (x29 x148 x148))))))
(assert (not (and (and (= x138 (x29 x38 x100)) (and (= x105 (x29 x100 x100)) (= x38 (x29 x105 x105)))) (= x54 (x29 x38 x138)))))
(assert (not (and (and (and (= (x29 x54 x54) x105) (= (x29 x105 x105) x138)) (= x38 (x29 x138 x54))) (= (x29 x138 x38) x100))))
(assert (not (and (= (x29 x54 x38) x105) (and (= (x29 x54 x100) x38) (and (= x138 (x29 x100 x100)) (= x54 (x29 x138 x138)))))))
(assert (not (and (and (and (= (x29 x100 x100) x54) (= (x29 x38 x38) x100)) (= x105 (x29 x54 x38))) (= x138 (x29 x54 x105)))))
(assert (not (and (= (x29 x100 x38) x105) (and (and (= (x29 x138 x138) x54) (= x100 (x29 x54 x54))) (= (x29 x100 x138) x38)))))
(assert (not (and (and (and (= x100 (x29 x105 x105)) (= (x29 x100 x100) x38)) (= (x29 x38 x105) x138)) (= (x29 x38 x138) x54))))
(assert (let ((x69 (x29 x54 x138)) (x51 (x29 x105 x138)) (x150 (x29 x54 x100)) (x39 (x29 x100 x54)) (x13 (x29 x100 x100)) (x43 (x29 x138 x38)) (x21 (x29 x100 x105)) (x85 (x29 x138 x138)) (x116 (x29 x138 x100)) (x73 (x29 x105 x38)) (x143 (x29 x38 x38)) (x156 (x29 x105 x54)) (x95 (x29 x100 x138)) (x131 (x29 x105 x100)) (x36 (x29 x138 x54)) (x158 (x29 x138 x105)) (x56 (x29 x38 x138)) (x109 (x29 x54 x38)) (x65 (x29 x100 x38)) (x42 (x29 x38 x105)) (x10 (x29 x105 x105)) (x80 (x29 x54 x105)) (x40 (x29 x38 x54)) (x57 (x29 x38 x100)) (x48 (x29 x54 x54))) (let ((x103 (= x10 x100)) (x121 (= x85 x54)) (x130 (= x80 x138)) (x23 (= x100 x21)) (x6 (= x57 x54)) (x139 (= x42 x54)) (x129 (= x158 x54)) (x60 (= x54 x69)) (x120 (= x100 x36)) (x59 (= x116 x100)) (x132 (= x158 x100)) (x5 (= x105 x48)) (x18 (= x13 x105)) (x64 (= x10 x105)) (x97 (= x143 x100)) (x101 (= x38 x13)) (x53 (= x21 x138)) (x127 (= x131 x54)) (x142 (= x56 x38)) (x45 (= x54 x116)) (x88 (= x156 x54)) (x15 (= x105 x42)) (x125 (= x38 x39)) (x55 (= x42 x100)) (x98 (= x54 x48)) (x71 (= x38 x65)) (x107 (= x143 x54)) (x112 (= x138 x13)) (x133 (= x80 x100)) (x52 (= x80 x54)) (x147 (= x109 x38)) (x137 (= x100 x69)) (x90 (= x56 x138)) (x72 (= x51 x100)) (x113 (= x105 x69)) (x66 (= x65 x105)) (x119 (= x38 x156)) (x99 (= x109 x138)) (x123 (= x38 x69)) (x157 (= x150 x100)) (x28 (= x54 x51)) (x87 (= x54 x13)) (x49 (= x100 x57)) (x89 (= x100 x48)) (x92 (= x56 x54)) (x83 (= x51 x138)) (x115 (= x105 x43)) (x149 (= x40 x54)) (x20 (= x36 x54)) (x19 (= x73 x105)) (x77 (= x100 x13)) (x58 (= x131 x100)) (x144 (= x105 x95)) (x151 (= x43 x38)) (x102 (= x105 x39)) (x31 (= x36 x138)) (x32 (= x105 x57)) (x68 (= x100 x40)) (x128 (= x38 x116)) (x9 (= x100 x85)) (x104 (= x100 x156)) (x67 (= x105 x21)) (x135 (= x73 x38)) (x148 (= x138 x95)) (x50 (= x138 x116)) (x136 (= x42 x138)) (x17 (= x38 x131)) (x140 (= x109 x54)) (x152 (= x138 x69)) (x27 (= x38 x143)) (x114 (= x40 x105)) (x22 (= x54 x150)) (x1 (= x43 x54)) (x63 (= x73 x138)) (x155 (= x105 x36)) (x76 (= x73 x100)) (x2 (= x116 x105)) (x91 (= x38 x150)) (x75 (= x65 x100)) (x106 (= x150 x105)) (x3 (= x158 x138)) (x30 (= x131 x105)) (x118 (= x138 x39)) (x37 (= x156 x138)) (x4 (= x105 x156)) (x110 (= x10 x138)) (x146 (= x39 x100)) (x122 (= x138 x48)) (x61 (= x85 x138)) (x35 (= x95 x54)) (x24 (= x38 x158)) (x34 (= x10 x38)) (x153 (= x38 x36)) (x82 (= x40 x38)) (x47 (= x38 x51)) (x70 (= x138 x131)) (x117 (= x105 x51)) (x111 (= x109 x105)) (x124 (= x54 x73)) (x26 (= x95 x100)) (x126 (= x85 x105)) (x96 (= x54 x10)) (x79 (= x138 x40)) (x11 (= x54 x39)) (x78 (= x138 x65)) (x81 (= x143 x105)) (x84 (= x138 x150)) (x93 (= x38 x57)) (x7 (= x105 x158)) (x46 (= x56 x100)) (x62 (= x54 x65)) (x108 (= x38 x48)) (x134 (= x85 x38)) (x16 (= x38 x21)) (x14 (= x21 x54)) (x94 (= x43 x138)) (x154 (= x138 x143)) (x25 (= x100 x43)) (x41 (= x57 x138)) (x44 (= x105 x80)) (x33 (= x95 x38)) (x74 (= x105 x56)) (x12 (= x100 x109)) (x141 (= x42 x38)) (x86 (= x80 x38))) (and (and (or (or (and x108 x108) (or (or (or (and x86 x119) (and x123 x153)) (and x91 x125)) (and x147 x82))) (or (or (or (or (or (or (and x17 x16) (or (and x24 x47) (and x34 x34))) (and x141 x135)) (and x119 x86)) (or (or (or (or (and x134 x134) (and x47 x24)) (and x128 x33)) (and x142 x151)) (and x123 x153))) (or (or (or (and x101 x101) (or (and x128 x33) (and x17 x16))) (and x71 x93)) (and x91 x125))) (or (and x147 x82) (or (and x27 x27) (or (or (and x135 x141) (and x142 x151)) (and x93 x71)))))) (and (and (or (or (or (or (or (or (and x74 x115) (and x15 x19)) (and x32 x66)) (and x81 x81)) (and x111 x114)) (or (or (or (or (or (and x30 x67) (or (and x64 x64) (and x7 x117))) (and x15 x19)) (and x4 x44)) (or (or (or (or (and x117 x7) (and x126 x126)) (and x144 x2)) (and x115 x74)) (and x113 x155))) (or (or (and x32 x66) (or (or (and x144 x2) (and x30 x67)) (and x18 x18))) (and x102 x106)))) (or (and x5 x5) (or (and x111 x114) (or (or (and x44 x4) (and x113 x155)) (and x102 x106))))) (or (or (and x122 x122) (or (and x99 x79) (or (or (and x31 x152) (and x37 x130)) (and x118 x84)))) (or (or (and x99 x79) (or (and x154 x154) (or (and x41 x78) (or (and x136 x63) (and x94 x90))))) (or (or (or (and x31 x152) (or (or (and x50 x148) (or (and x83 x3) (and x61 x61))) (and x90 x94))) (or (and x37 x130) (or (and x63 x136) (or (or (and x83 x3) (and x110 x110)) (and x53 x70))))) (or (or (or (and x112 x112) (or (and x50 x148) (and x53 x70))) (and x78 x41)) (and x118 x84)))))) (or (or (or (and x12 x68) (or (and x97 x97) (or (or (and x55 x76) (and x25 x46)) (and x49 x75)))) (or (or (or (or (or (or (and x132 x72) (and x9 x9)) (and x59 x26)) (and x25 x46)) (and x137 x120)) (or (and x104 x133) (or (and x76 x55) (or (and x58 x23) (or (and x103 x103) (and x132 x72)))))) (or (and x146 x157) (or (or (or (and x58 x23) (and x26 x59)) (and x77 x77)) (and x75 x49))))) (or (and x89 x89) (or (or (or (and x120 x137) (and x133 x104)) (and x146 x157)) (and x12 x68)))))) (or (or (or (or (or (or (or (or (and x28 x129) (and x96 x96)) (and x14 x127)) (and x124 x139)) (and x52 x88)) (or (and x20 x60) (or (and x92 x1) (or (or (and x28 x129) (and x121 x121)) (and x45 x35))))) (or (and x22 x11) (or (and x62 x6) (or (or (and x45 x35) (and x14 x127)) (and x87 x87))))) (or (or (or (and x62 x6) (or (and x1 x92) (and x139 x124))) (and x107 x107)) (and x140 x149))) (or (and x98 x98) (or (and x140 x149) (or (or (and x60 x20) (and x88 x52)) (and x11 x22)))))))))
(assert (not (and (= x54 (x29 x100 x105)) (and (and (= x138 (x29 x38 x38)) (= x100 (x29 x138 x138))) (= x105 (x29 x100 x38))))))
(assert (not (and (and (= x54 (x29 x100 x38)) (and (= (x29 x38 x38) x138) (= (x29 x138 x138) x100))) (= (x29 x100 x54) x105))))
(assert (not (and (= x38 (x29 x100 x54)) (and (= x54 (x29 x100 x105)) (and (= (x29 x105 x105) x138) (= x100 (x29 x138 x138)))))))
(assert (not (and (= x54 (x29 x105 x138)) (and (and (= x38 (x29 x100 x100)) (= (x29 x38 x38) x105)) (= (x29 x105 x100) x138)))))
(assert (not (and (= x105 (x29 x138 x100)) (and (and (= (x29 x38 x38) x138) (= x38 (x29 x54 x54))) (= x100 (x29 x138 x54))))))
(assert (not (and (= x138 (x29 x38 x105)) (and (and (= x54 (x29 x100 x100)) (= (x29 x54 x54) x38)) (= (x29 x38 x100) x105)))))
(assert (let ((x118 (x29 x105 x54)) (x126 (x29 x54 x105)) (x58 (x29 x54 x38)) (x153 (x29 x54 x54)) (x148 (x29 x138 x38)) (x50 (x29 x138 x54)) (x156 (x29 x100 x100)) (x112 (x29 x100 x138)) (x3 (x29 x138 x105)) (x37 (x29 x105 x100)) (x83 (x29 x138 x138)) (x84 (x29 x105 x38)) (x110 (x29 x138 x100)) (x90 (x29 x38 x138)) (x72 (x29 x38 x38)) (x132 (x29 x38 x54)) (x13 (x29 x38 x100)) (x18 (x29 x54 x100)) (x144 (x29 x100 x54)) (x70 (x29 x105 x138)) (x94 (x29 x54 x138)) (x85 (x29 x38 x105)) (x130 (x29 x105 x105)) (x80 (x29 x100 x38)) (x122 (x29 x100 x105))) (let ((x56 (= x38 x130)) (x24 (= x54 x80)) (x66 (= x38 x156)) (x69 (= x54 x3)) (x154 (= x3 x138)) (x60 (= x94 x54)) (x96 (= x118 x100)) (x131 (= x138 x37)) (x65 (= x112 x100)) (x44 (= x85 x138)) (x124 (= x118 x38)) (x147 (= x105 x153)) (x141 (= x138 x132)) (x35 (= x144 x100)) (x48 (= x90 x105)) (x32 (= x38 x37)) (x157 (= x38 x80)) (x92 (= x38 x18)) (x34 (= x54 x72)) (x45 (= x100 x132)) (x23 (= x105 x72)) (x30 (= x105 x156)) (x47 (= x54 x84)) (x6 (= x38 x144)) (x67 (= x37 x105)) (x59 (= x80 x105)) (x123 (= x105 x58)) (x119 (= x105 x118)) (x76 (= x84 x100)) (x79 (= x130 x105)) (x106 (= x148 x138)) (x151 (= x144 x138)) (x116 (= x100 x130)) (x104 (= x84 x38)) (x137 (= x85 x38)) (x139 (= x50 x38)) (x81 (= x122 x54)) (x4 (= x138 x13)) (x64 (= x110 x138)) (x27 (= x105 x18)) (x111 (= x80 x138)) (x125 (= x132 x105)) (x61 (= x138 x83)) (x71 (= x126 x105)) (x149 (= x132 x54)) (x86 (= x50 x105)) (x135 (= x138 x153)) (x7 (= x138 x112)) (x15 (= x38 x122)) (x20 (= x126 x54)) (x109 (= x37 x54)) (x91 (= x105 x144)) (x39 (= x100 x110)) (x113 (= x156 x54)) (x25 (= x100 x13)) (x75 (= x72 x100)) (x146 (= x38 x72)) (x78 (= x70 x138)) (x133 (= x38 x148)) (x49 (= x80 x100)) (x152 (= x130 x138)) (x16 (= x18 x138)) (x150 (= x37 x100)) (x93 (= x94 x105)) (x10 (= x122 x138)) (x51 (= x3 x100)) (x114 (= x138 x72)) (x46 (= x85 x100)) (x136 (= x83 x100)) (x11 (= x118 x54)) (x40 (= x110 x54)) (x107 (= x38 x153)) (x63 (= x38 x83)) (x55 (= x148 x100)) (x33 (= x138 x94)) (x97 (= x90 x38)) (x108 (= x100 x126)) (x17 (= x58 x138)) (x99 (= x105 x3)) (x102 (= x138 x84)) (x5 (= x85 x105)) (x120 (= x38 x13)) (x158 (= x100 x70)) (x77 (= x100 x90)) (x87 (= x126 x38)) (x89 (= x13 x54)) (x41 (= x54 x83)) (x128 (= x138 x126)) (x12 (= x54 x90)) (x28 (= x58 x100)) (x140 (= x54 x144)) (x127 (= x38 x94)) (x42 (= x105 x122)) (x129 (= x100 x50)) (x73 (= x112 x105)) (x21 (= x156 x138)) (x22 (= x50 x54)) (x2 (= x110 x105)) (x115 (= x112 x38)) (x53 (= x105 x83)) (x142 (= x118 x138)) (x19 (= x110 x38)) (x36 (= x54 x70)) (x101 (= x138 x50)) (x74 (= x156 x100)) (x68 (= x54 x85)) (x9 (= x105 x13)) (x103 (= x148 x105)) (x1 (= x58 x38)) (x98 (= x54 x153)) (x88 (= x54 x58)) (x14 (= x153 x100)) (x95 (= x38 x70)) (x82 (= x100 x94)) (x121 (= x100 x18)) (x62 (= x38 x132)) (x31 (= x105 x70)) (x57 (= x122 x100)) (x117 (= x130 x54)) (x52 (= x54 x18)) (x143 (= x112 x54)) (x155 (= x138 x90)) (x134 (= x148 x54)) (x26 (= x84 x105)) (x43 (= x3 x38))) (and (and (and (and (and (and (and (or (or (or x115 (or x95 x63)) x97) x127) (or (or (or x19 (or x43 x63)) x133) x139)) (and (and (or (or x55 (or (or x51 x136) x39)) x129) (or (or x77 (or (or x136 x158) x65)) x82)) (and (and (or x86 (or x103 (or (or x53 x99) x2))) (or (or (or (or x53 x31) x73) x48) x93)) (and (or (or x155 (or x7 (or x78 x61))) x33) (or (or x106 (or (or x154 x61) x64)) x101))))) (and (or (or (or x40 (or x41 x69)) x134) x22) (or (or x12 (or (or x36 x41) x143)) x60))) (and (and (or (or x47 (or x109 (or x117 x36))) x11) (or (or (or (or x69 x117) x81) x68) x20)) (and (and (and (or (or x46 (or (or x116 x51) x57)) x108) (or (or (or (or x116 x158) x150) x76) x96)) (and (and (or (or (or x10 (or x154 x152)) x44) x128) (or (or (or x131 (or x78 x152)) x102) x142)) (and (or x119 (or x26 (or x67 (or x79 x31)))) (or x71 (or (or x42 (or x79 x99)) x5))))) (and (or x124 (or x104 (or (or x95 x56) x32))) (or x87 (or (or (or x56 x43) x15) x137)))))) (and (and (or (or (or x113 (or x109 x40)) x89) x52) (or (or x24 (or (or x81 x143) x113)) x140)) (and (and (and (and (or (or x9 (or (or x2 x67) x30)) x27) (or (or (or x30 (or x73 x42)) x59) x91)) (and (or x16 (or (or (or x64 x131) x21) x4)) (or (or (or (or x10 x7) x21) x111) x151))) (and (or x35 (or (or (or x57 x65) x74) x49)) (or (or x25 (or (or x39 x150) x74)) x121))) (and (or (or (or (or x19 x32) x66) x120) x92) (or (or (or x66 (or x115 x15)) x157) x6))))) (and (and (or (or (or x89 (or x68 x12)) x34) x149) (or x88 (or x34 (or (or x134 x47) x24)))) (and (and (and (or x45 (or x75 (or x25 (or x46 x77)))) (or (or (or x49 (or x55 x76)) x75) x28)) (and (and (or x125 (or x23 (or (or x48 x5) x9))) (or (or x23 (or x59 (or x26 x103))) x123)) (and (or x141 (or x114 (or x4 (or x155 x44)))) (or x17 (or (or x111 (or x106 x102)) x114))))) (and (or (or (or x120 (or x137 x97)) x146) x62) (or x1 (or x146 (or x157 (or x133 x104)))))))) (and (and (or x98 (or (or (or x11 x22) x140) x149)) (or x98 (or x88 (or (or x60 x20) x52)))) (and (and (or (or (or (or x127 x87) x92) x1) x107) (or x107 (or x62 (or (or x139 x124) x6)))) (and (and (or x14 (or (or (or x96 x129) x35) x45)) (or (or (or (or x108 x82) x121) x28) x14)) (and (and (or x135 (or (or (or x101 x142) x151) x141)) (or x135 (or (or x16 (or x128 x33)) x17))) (and (or (or (or (or x119 x86) x91) x125) x147) (or (or x123 (or x27 (or x93 x71))) x147))))))))))
(assert (not (and (= x38 (x29 x105 x100)) (and (= (x29 x105 x54) x100) (and (= (x29 x54 x54) x138) (= (x29 x138 x138) x105))))))
(assert (not (and (= (x29 x105 x38) x100) (and (= x38 (x29 x105 x138)) (and (= (x29 x138 x138) x54) (= x105 (x29 x54 x54)))))))
(assert (not (and (= (x29 x38 x105) x100) (and (= x105 (x29 x38 x54)) (and (= (x29 x54 x54) x138) (= (x29 x138 x138) x38))))))
(assert (not (and (= x138 (x29 x100 x105)) (and (and (= x38 (x29 x54 x54)) (= x100 (x29 x38 x38))) (= (x29 x100 x54) x105)))))
(assert (and (and (and (= (x29 (x29 x38 x54) x38) x54) (and (and (and (= x138 (x29 (x29 x38 x138) x38)) (= (x29 (x29 x38 x105) x38) x105)) (= x100 (x29 (x29 x38 x100) x38))) (= (x29 (x29 x38 x38) x38) x38))) (and (and (and (= (x29 (x29 x105 x54) x105) x54) (and (and (and (= x105 (x29 (x29 x105 x105) x105)) (= (x29 (x29 x105 x138) x105) x138)) (= x100 (x29 (x29 x105 x100) x105))) (= x38 (x29 (x29 x105 x38) x105)))) (and (= x54 (x29 (x29 x138 x54) x138)) (and (and (and (= (x29 (x29 x138 x105) x138) x105) (= x138 (x29 (x29 x138 x138) x138))) (= (x29 (x29 x138 x100) x138) x100)) (= (x29 (x29 x138 x38) x138) x38)))) (and (= (x29 (x29 x100 x54) x100) x54) (and (= (x29 (x29 x100 x38) x100) x38) (and (= (x29 (x29 x100 x100) x100) x100) (and (= (x29 (x29 x100 x105) x100) x105) (= x138 (x29 (x29 x100 x138) x100)))))))) (and (and (= (x29 (x29 x54 x38) x54) x38) (and (and (= x138 (x29 (x29 x54 x138) x54)) (= x105 (x29 (x29 x54 x105) x54))) (= x100 (x29 (x29 x54 x100) x54)))) (= x54 (x29 (x29 x54 x54) x54)))))
(assert (not (and (= x105 (x29 x138 x100)) (and (= x100 (x29 x138 x38)) (and (= x54 (x29 x38 x38)) (= (x29 x54 x54) x138))))))
(assert (not (and (= (x29 x38 x54) x100) (and (= (x29 x38 x105) x54) (and (= (x29 x138 x138) x38) (= (x29 x105 x105) x138))))))
(assert (not (and (= (x29 x100 x54) x138) (and (= (x29 x100 x38) x54) (and (= (x29 x38 x38) x105) (= (x29 x105 x105) x100))))))
(assert (not (and (= x38 (x29 x138 x105)) (and (and (= x54 (x29 x100 x100)) (= (x29 x54 x54) x138)) (= (x29 x138 x100) x105)))))
(assert (not (and (= (x29 x105 x38) x54) (and (= (x29 x105 x100) x38) (and (= x105 (x29 x138 x138)) (= x138 (x29 x100 x100)))))))
(assert (not (and (and (= x138 (x29 x100 x38)) (and (= x105 (x29 x38 x38)) (= (x29 x105 x105) x100))) (= (x29 x100 x138) x54))))
(assert (not (and (= (x29 x54 x138) x100) (and (and (= (x29 x105 x105) x54) (= (x29 x38 x38) x105)) (= x138 (x29 x54 x38))))))
(assert (not (and (and (= x54 (x29 x105 x138)) (and (= (x29 x138 x138) x100) (= x105 (x29 x100 x100)))) (= (x29 x105 x54) x38))))
(assert (not (and (and (and (= x54 (x29 x38 x38)) (= (x29 x54 x54) x100)) (= (x29 x100 x38) x105)) (= x138 (x29 x100 x105)))))
(assert (not (and (= (x29 x38 x100) x54) (and (and (= (x29 x105 x105) x138) (= x38 (x29 x138 x138))) (= x100 (x29 x38 x105))))))
(assert (not (and (= (x29 x54 x100) x105) (and (and (= (x29 x38 x38) x138) (= x54 (x29 x138 x138))) (= x100 (x29 x54 x38))))))
(assert (not (and (= (x29 x105 x100) x138) (and (and (= x54 (x29 x38 x38)) (= x105 (x29 x54 x54))) (= x100 (x29 x105 x38))))))
(assert (not (and (= (x29 x54 x100) x138) (and (= (x29 x54 x105) x100) (and (= (x29 x105 x105) x38) (= x54 (x29 x38 x38)))))))
(assert (not (and (= x38 (x29 x138 x54)) (and (and (= x138 (x29 x105 x105)) (= x105 (x29 x100 x100))) (= x54 (x29 x138 x100))))))
(assert (not (and (and (and (= x100 (x29 x54 x54)) (= x138 (x29 x100 x100))) (= (x29 x138 x54) x38)) (= x105 (x29 x138 x38)))))
(assert (not (and (= (x29 x105 x54) x100) (and (= (x29 x105 x138) x54) (and (= (x29 x38 x38) x105) (= (x29 x138 x138) x38))))))
(assert (not (and (and (= x105 (x29 x100 x138)) (and (= x100 (x29 x38 x38)) (= x38 (x29 x138 x138)))) (= (x29 x100 x105) x54))))
(assert (not (and (and (and (= x38 (x29 x100 x100)) (= x138 (x29 x38 x38))) (= (x29 x138 x100) x54)) (= (x29 x138 x54) x105))))
(assert (let ((x136 (x29 x100 x105)) (x31 (x29 x38 x100)) (x70 (x29 x105 x100)) (x152 (x29 x38 x105)) (x37 (x29 x38 x54)) (x148 (x29 x138 x54)) (x90 (x29 x105 x54)) (x63 (x29 x100 x100)) (x84 (x29 x54 x138)) (x94 (x29 x100 x138)) (x110 (x29 x138 x38)) (x41 (x29 x100 x38)) (x130 (x29 x38 x38)) (x118 (x29 x54 x105)) (x154 (x29 x38 x138)) (x79 (x29 x54 x38)) (x78 (x29 x100 x54)) (x61 (x29 x138 x138)) (x50 (x29 x105 x138)) (x112 (x29 x105 x38)) (x99 (x29 x54 x100)) (x3 (x29 x138 x100)) (x53 (x29 x105 x105)) (x83 (x29 x138 x105)) (x122 (x29 x54 x54))) (and (and (and (and (and (and (and (and (or (or (or (= x61 x100) (or (= x61 x105) (= x61 x138))) (= x38 x61)) (= x61 x54)) (or (= x83 x54) (or (= x38 x83) (or (= x83 x100) (or (= x83 x138) (= x105 x83)))))) (or (or (or (= x3 x100) (or (= x3 x105) (= x138 x3))) (= x38 x3)) (= x54 x3))) (or (or (or (= x100 x110) (or (= x110 x138) (= x110 x105))) (= x110 x38)) (= x110 x54))) (or (= x148 x54) (or (or (= x100 x148) (or (= x105 x148) (= x138 x148))) (= x148 x38)))) (and (or (= x90 x54) (or (= x38 x90) (or (or (= x90 x105) (= x90 x138)) (= x100 x90)))) (and (and (or (or (= x38 x70) (or (= x100 x70) (or (= x70 x105) (= x138 x70)))) (= x54 x70)) (and (or (= x54 x53) (or (= x38 x53) (or (= x100 x53) (or (= x53 x138) (= x53 x105))))) (or (= x50 x54) (or (= x50 x38) (or (= x50 x100) (or (= x50 x138) (= x105 x50))))))) (or (or (= x38 x112) (or (= x100 x112) (or (= x105 x112) (= x138 x112)))) (= x112 x54))))) (and (or (or (or (= x100 x78) (or (= x138 x78) (= x78 x105))) (= x78 x38)) (= x54 x78)) (and (or (= x41 x54) (or (= x38 x41) (or (= x41 x100) (or (= x105 x41) (= x138 x41))))) (and (or (or (= x38 x63) (or (or (= x63 x105) (= x138 x63)) (= x63 x100))) (= x63 x54)) (and (or (or (or (or (= x136 x105) (= x136 x138)) (= x100 x136)) (= x136 x38)) (= x54 x136)) (or (= x54 x94) (or (or (= x94 x100) (or (= x105 x94) (= x94 x138))) (= x38 x94)))))))) (and (and (and (and (or (or (= x38 x152) (or (= x100 x152) (or (= x152 x138) (= x105 x152)))) (= x152 x54)) (or (or (= x38 x154) (or (= x154 x100) (or (= x154 x138) (= x154 x105)))) (= x54 x154))) (or (= x31 x54) (or (= x31 x38) (or (or (= x31 x105) (= x138 x31)) (= x100 x31))))) (or (= x130 x54) (or (or (or (= x130 x105) (= x130 x138)) (= x100 x130)) (= x130 x38)))) (or (= x37 x54) (or (or (= x100 x37) (or (= x37 x138) (= x105 x37))) (= x38 x37))))) (and (and (and (or (or (or (= x100 x99) (or (= x105 x99) (= x138 x99))) (= x38 x99)) (= x54 x99)) (and (or (or (= x38 x84) (or (= x84 x100) (or (= x84 x138) (= x84 x105)))) (= x54 x84)) (or (or (= x38 x118) (or (or (= x118 x138) (= x105 x118)) (= x100 x118))) (= x54 x118)))) (or (= x79 x54) (or (= x38 x79) (or (= x79 x100) (or (= x105 x79) (= x138 x79)))))) (or (= x122 x54) (or (or (or (= x105 x122) (= x122 x138)) (= x122 x100)) (= x38 x122)))))))
(assert (not (and (= x105 (x29 x54 x38)) (and (and (= x100 (x29 x138 x138)) (= x54 (x29 x100 x100))) (= x38 (x29 x54 x138))))))
(assert (not (and (= x38 (x29 x138 x100)) (and (and (= x138 (x29 x105 x105)) (= x105 (x29 x54 x54))) (= x100 (x29 x138 x54))))))
(assert (not (and (= x138 (x29 x100 x54)) (and (= x54 (x29 x100 x105)) (and (= x38 (x29 x105 x105)) (= (x29 x38 x38) x100))))))
(assert (not (and (and (= (x29 x138 x105) x54) (and (= (x29 x105 x105) x100) (= x138 (x29 x100 x100)))) (= x38 (x29 x138 x54)))))
(assert (not (and (= x100 (x29 x105 x138)) (and (and (= (x29 x54 x54) x38) (= (x29 x38 x38) x105)) (= x138 (x29 x105 x54))))))
(assert (not (and (= x138 (x29 x54 x38)) (and (and (= x54 (x29 x100 x100)) (= (x29 x105 x105) x100)) (= (x29 x54 x105) x38)))))
(assert (not (and (= (x29 x54 x105) x100) (and (= x105 (x29 x54 x38)) (and (= (x29 x138 x138) x54) (= x138 (x29 x38 x38)))))))
(assert (not (and (= x100 (x29 x38 x54)) (and (and (= (x29 x105 x105) x38) (= x105 (x29 x138 x138))) (= x54 (x29 x38 x138))))))
(assert (not (and (and (= (x29 x105 x54) x38) (and (= x105 (x29 x100 x100)) (= (x29 x54 x54) x100))) (= x138 (x29 x105 x38)))))
(assert (not (and (= (x29 x38 x54) x138) (and (= x54 (x29 x38 x105)) (and (= (x29 x100 x100) x38) (= x100 (x29 x105 x105)))))))
(assert (not (and (and (and (= (x29 x54 x54) x100) (= (x29 x100 x100) x105)) (= (x29 x105 x54) x138)) (= (x29 x105 x138) x38))))
(assert (not (and (and (and (= (x29 x38 x38) x100) (= x138 (x29 x100 x100))) (= (x29 x138 x38) x54)) (= x105 (x29 x138 x54)))))
(assert (and (= (x29 x54 (x29 x54 x54)) x54) (and (and (and (= x105 (x29 x105 (x29 x105 x105))) (= (x29 x138 (x29 x138 x138)) x138)) (= x100 (x29 x100 (x29 x100 x100)))) (= x38 (x29 x38 (x29 x38 x38))))))
(assert (not (and (and (= (x29 x38 x100) x54) (and (= x38 (x29 x105 x105)) (= x105 (x29 x100 x100)))) (= x138 (x29 x38 x54)))))
(assert (not (and (and (= (x29 x138 x38) x105) (and (= x138 (x29 x54 x54)) (= x54 (x29 x38 x38)))) (= (x29 x138 x105) x100))))
(assert (not (and (and (= x138 (x29 x38 x54)) (and (= x38 (x29 x105 x105)) (= (x29 x54 x54) x105))) (= x100 (x29 x38 x138)))))
(assert (let ((x112 (x29 x38 x105)) (x94 (x29 x138 x100)) (x90 (x29 x54 x105)) (x148 (x29 x54 x138)) (x78 (x29 x54 x100)) (x50 (x29 x138 x105)) (x154 (x29 x138 x38)) (x84 (x29 x138 x54)) (x31 (x29 x100 x38)) (x122 (x29 x54 x54)) (x130 (x29 x38 x38)) (x37 (x29 x54 x38)) (x136 (x29 x105 x100)) (x3 (x29 x100 x138)) (x83 (x29 x105 x138)) (x70 (x29 x100 x105)) (x63 (x29 x100 x100)) (x118 (x29 x105 x54)) (x110 (x29 x38 x138)) (x79 (x29 x38 x54)) (x61 (x29 x138 x138)) (x99 (x29 x100 x54)) (x152 (x29 x105 x38)) (x53 (x29 x105 x105)) (x41 (x29 x38 x100))) (and (and (and (not (= x122 x37)) (and (not (= x122 x78)) (and (not (= x78 x37)) (and (and (not (= x37 x90)) (and (not (= x78 x90)) (and (not (= x148 x122)) (and (and (not (= x148 x90)) (not (= x78 x148))) (not (= x148 x37)))))) (not (= x90 x122)))))) (and (and (and (and (and (not (= x118 x136)) (and (and (and (not (= x152 x53)) (and (not (= x53 x136)) (and (and (and (not (= x83 x136)) (not (= x83 x53))) (not (= x152 x83))) (not (= x83 x118))))) (not (= x53 x118))) (not (= x152 x136)))) (not (= x118 x152))) (and (and (and (and (and (and (and (not (= x84 x61)) (and (not (= x61 x154)) (and (not (= x61 x94)) (not (= x61 x50))))) (not (= x94 x50))) (not (= x154 x50))) (not (= x84 x50))) (not (= x154 x94))) (not (= x94 x84))) (not (= x84 x154)))) (and (and (not (= x63 x99)) (and (and (not (= x99 x70)) (and (and (and (and (and (not (= x3 x70)) (not (= x63 x3))) (not (= x3 x31))) (not (= x3 x99))) (not (= x70 x63))) (not (= x70 x31)))) (not (= x31 x63)))) (not (= x99 x31)))) (and (and (not (= x79 x41)) (and (not (= x130 x41)) (and (not (= x112 x79)) (and (not (= x130 x112)) (and (and (and (and (not (= x110 x112)) (not (= x110 x41))) (not (= x110 x130))) (not (= x110 x79))) (not (= x112 x41))))))) (not (= x79 x130))))) (and (and (and (and (not (= x78 x41)) (and (not (= x63 x78)) (and (and (and (and (and (not (= x94 x78)) (and (and (not (= x63 x94)) (not (= x94 x136))) (not (= x41 x94)))) (not (= x63 x136))) (not (= x41 x136))) (not (= x78 x136))) (not (= x63 x41))))) (and (and (and (not (= x148 x3)) (and (and (not (= x148 x83)) (and (not (= x83 x110)) (and (and (not (= x148 x61)) (and (and (not (= x61 x3)) (not (= x61 x83))) (not (= x110 x61)))) (not (= x83 x3))))) (not (= x3 x110)))) (not (= x148 x110))) (and (and (and (and (and (and (not (= x53 x70)) (and (not (= x50 x90)) (and (and (not (= x50 x70)) (not (= x50 x53))) (not (= x50 x112))))) (not (= x53 x112))) (not (= x53 x90))) (not (= x112 x70))) (not (= x90 x70))) (not (= x112 x90))))) (and (not (= x37 x130)) (and (not (= x37 x31)) (and (and (not (= x152 x37)) (and (not (= x130 x152)) (and (not (= x31 x152)) (and (and (not (= x130 x154)) (and (not (= x154 x31)) (not (= x154 x152)))) (not (= x154 x37)))))) (not (= x130 x31)))))) (and (and (and (not (= x99 x79)) (and (not (= x122 x118)) (and (not (= x118 x79)) (and (not (= x118 x99)) (and (not (= x122 x84)) (and (and (not (= x118 x84)) (not (= x84 x99))) (not (= x84 x79)))))))) (not (= x99 x122))) (not (= x122 x79)))))))
(assert (not (and (and (= (x29 x38 x138) x54) (and (= x100 (x29 x138 x138)) (= (x29 x100 x100) x38))) (= (x29 x38 x54) x105))))
(assert (not (and (and (= (x29 x138 x105) x54) (and (= (x29 x38 x38) x138) (= x38 (x29 x105 x105)))) (= x100 (x29 x138 x54)))))
(assert (not (and (= x38 (x29 x100 x105)) (and (= x105 (x29 x100 x54)) (and (= x100 (x29 x138 x138)) (= x138 (x29 x54 x54)))))))
(assert (not (and (= (x29 x54 x100) x38) (and (and (= x105 (x29 x138 x138)) (= x54 (x29 x105 x105))) (= x100 (x29 x54 x138))))))
(assert (not (and (= x54 (x29 x138 x38)) (and (and (= (x29 x105 x105) x138) (= x105 (x29 x100 x100))) (= x38 (x29 x138 x100))))))
(assert (not (and (and (= x100 (x29 x105 x138)) (and (= x105 (x29 x38 x38)) (= x38 (x29 x138 x138)))) (= x54 (x29 x105 x100)))))
(assert (not (and (and (= (x29 x54 x105) x38) (and (= (x29 x138 x138) x54) (= (x29 x105 x105) x138))) (= x100 (x29 x54 x38)))))
(assert (not (and (= (x29 x100 x138) x38) (and (= (x29 x100 x105) x138) (and (= x54 (x29 x105 x105)) (= (x29 x54 x54) x100))))))
(assert (not (and (and (and (= (x29 x38 x38) x54) (= x38 (x29 x138 x138))) (= x100 (x29 x54 x138))) (= x105 (x29 x54 x100)))))
(assert (not (and (= x138 (x29 x38 x100)) (and (= x100 (x29 x38 x105)) (and (= x38 (x29 x54 x54)) (= x54 (x29 x105 x105)))))))
(assert (and (or (= (x29 x54 (x29 x54 x54)) x54) (or (or (= x100 (x29 x54 (x29 x54 x100))) (or (= x105 (x29 x54 (x29 x54 x105))) (= x138 (x29 x54 (x29 x54 x138))))) (= x38 (x29 x54 (x29 x54 x38))))) (and (and (or (= (x29 x100 (x29 x100 x54)) x54) (or (= x38 (x29 x100 (x29 x100 x38))) (or (or (= x138 (x29 x100 (x29 x100 x138))) (= x105 (x29 x100 (x29 x100 x105)))) (= (x29 x100 (x29 x100 x100)) x100)))) (and (or (= x54 (x29 x138 (x29 x138 x54))) (or (= x38 (x29 x138 (x29 x138 x38))) (or (= x100 (x29 x138 (x29 x138 x100))) (or (= x138 (x29 x138 (x29 x138 x138))) (= x105 (x29 x138 (x29 x138 x105))))))) (or (= x54 (x29 x105 (x29 x105 x54))) (or (= (x29 x105 (x29 x105 x38)) x38) (or (= (x29 x105 (x29 x105 x100)) x100) (or (= (x29 x105 (x29 x105 x138)) x138) (= (x29 x105 (x29 x105 x105)) x105))))))) (or (or (= (x29 x38 (x29 x38 x38)) x38) (or (or (= x138 (x29 x38 (x29 x38 x138))) (= (x29 x38 (x29 x38 x105)) x105)) (= (x29 x38 (x29 x38 x100)) x100))) (= x54 (x29 x38 (x29 x38 x54)))))))
(assert (not (and (and (= x100 (x29 x105 x38)) (and (= x138 (x29 x38 x38)) (= x105 (x29 x138 x138)))) (= (x29 x105 x100) x54))))
(assert (not (and (and (and (= (x29 x100 x100) x54) (= (x29 x54 x54) x105)) (= (x29 x105 x100) x138)) (= (x29 x105 x138) x38))))
(assert (not (and (= (x29 x100 x38) x54) (and (and (= (x29 x138 x138) x105) (= x100 (x29 x105 x105))) (= (x29 x100 x138) x38)))))
(assert (not (and (= x100 (x29 x138 x54)) (and (and (= (x29 x105 x105) x138) (= (x29 x38 x38) x105)) (= (x29 x138 x38) x54)))))
(assert (not (and (and (and (= x38 (x29 x105 x105)) (= x100 (x29 x38 x38))) (= x138 (x29 x100 x105))) (= x54 (x29 x100 x138)))))
(assert (and (and (and (not (= x100 x38)) (and (not (= x105 x54)) (and (not (= x38 x105)) (and (and (and (and (not (= x138 x105)) (not (= x138 x100))) (not (= x38 x138))) (not (= x54 x138))) (not (= x105 x100)))))) (not (= x100 x54))) (not (= x38 x54))))
(assert (not (and (and (and (= (x29 x138 x138) x100) (= x105 (x29 x100 x100))) (= (x29 x105 x138) x38)) (= x54 (x29 x105 x38)))))
(assert (not (and (= x100 (x29 x54 x38)) (and (and (= (x29 x138 x138) x105) (= x54 (x29 x105 x105))) (= x38 (x29 x54 x138))))))
(assert (not (and (= (x29 x105 x54) x138) (and (and (= x105 (x29 x100 x100)) (= (x29 x38 x38) x100)) (= (x29 x105 x38) x54)))))
(assert (not (and (= (x29 x38 x138) x100) (and (and (= (x29 x105 x105) x54) (= x38 (x29 x54 x54))) (= x138 (x29 x38 x105))))))
(assert (not (and (and (= x138 (x29 x54 x100)) (and (= (x29 x105 x105) x54) (= (x29 x100 x100) x105))) (= (x29 x54 x138) x38))))
(assert (let ((x112 (x29 x100 x100)) (x136 (x29 x38 x105)) (x154 (x29 x38 x38)) (x3 (x29 x138 x105)) (x63 (x29 x105 x38)) (x78 (x29 x100 x38)) (x50 (x29 x138 x100)) (x152 (x29 x54 x138)) (x79 (x29 x38 x54)) (x83 (x29 x105 x138)) (x90 (x29 x38 x138)) (x110 (x29 x105 x105)) (x122 (x29 x54 x54)) (x61 (x29 x138 x138)) (x94 (x29 x138 x38)) (x130 (x29 x54 x105)) (x37 (x29 x105 x54)) (x84 (x29 x54 x100)) (x31 (x29 x138 x54)) (x41 (x29 x38 x100)) (x148 (x29 x100 x138)) (x99 (x29 x54 x38)) (x118 (x29 x100 x54)) (x53 (x29 x100 x105)) (x70 (x29 x105 x100))) (or (or (or (or (and (and (and (= x70 x53) (and (= x110 x110) (= x3 x83))) (= x63 x136)) (= x130 x37)) (and (and (and (and (= x83 x3) (= x61 x61)) (= x148 x50)) (= x94 x90)) (= x31 x152))) (and (and (= x41 x78) (and (= x112 x112) (and (= x148 x50) (= x70 x53)))) (= x118 x84))) (and (and (and (and (= x94 x90) (= x136 x63)) (= x78 x41)) (= x154 x154)) (= x99 x79))) (and (and (= x79 x99) (and (= x84 x118) (and (= x152 x31) (= x37 x130)))) (= x122 x122)))))
(assert (not (and (and (= x100 (x29 x138 x105)) (and (= x54 (x29 x105 x105)) (= (x29 x54 x54) x138))) (= (x29 x138 x100) x38))))
(assert (not (and (and (= (x29 x138 x105) x100) (and (= (x29 x105 x105) x38) (= x138 (x29 x38 x38)))) (= (x29 x138 x100) x54))))
(assert (not (and (= x105 (x29 x54 x138)) (and (and (= x38 (x29 x100 x100)) (= x54 (x29 x38 x38))) (= x138 (x29 x54 x100))))))
(assert (not (and (and (and (= (x29 x138 x138) x38) (= (x29 x38 x38) x100)) (= (x29 x100 x138) x54)) (= x105 (x29 x100 x54)))))
(assert (not (and (and (and (= x38 (x29 x138 x138)) (= x138 (x29 x54 x54))) (= x100 (x29 x38 x54))) (= (x29 x38 x100) x105))))
(assert (let ((x110 (x29 x38 x38)) (x148 (x29 x54 x54)) (x3 (x29 x100 x100)) (x83 (x29 x105 x105)) (x61 (x29 x138 x138))) (or (and (not (= x54 x148)) (and (not (= x110 x54)) (and (and (not (= x61 x54)) (not (= x54 x83))) (not (= x54 x3))))) (or (or (and (not (= x100 x148)) (and (and (and (not (= x100 x61)) (not (= x83 x100))) (not (= x100 x3))) (not (= x100 x110)))) (or (and (not (= x148 x105)) (and (and (not (= x3 x105)) (and (not (= x83 x105)) (not (= x105 x61)))) (not (= x110 x105)))) (and (and (and (not (= x138 x3)) (and (not (= x138 x61)) (not (= x83 x138)))) (not (= x110 x138))) (not (= x138 x148))))) (and (not (= x38 x148)) (and (not (= x110 x38)) (and (not (= x38 x3)) (and (not (= x61 x38)) (not (= x38 x83))))))))))
(assert (not (and (and (= x54 (x29 x105 x100)) (and (= x38 (x29 x100 x100)) (= (x29 x38 x38) x105))) (= x138 (x29 x105 x54)))))
(assert (not (and (= (x29 x54 x105) x38) (and (and (= (x29 x100 x100) x54) (= x100 (x29 x138 x138))) (= x105 (x29 x54 x138))))))
(assert (not (and (and (= (x29 x38 x138) x100) (and (= x105 (x29 x138 x138)) (= x38 (x29 x105 x105)))) (= (x29 x38 x100) x54))))
(assert (not (and (and (= (x29 x105 x100) x38) (and (= x54 (x29 x100 x100)) (= (x29 x54 x54) x105))) (= x138 (x29 x105 x38)))))
(assert (not (and (= x100 (x29 x54 x138)) (and (and (= (x29 x38 x38) x54) (= (x29 x105 x105) x38)) (= (x29 x54 x105) x138)))))
(assert (let ((x130 (x29 x54 x105)) (x152 (x29 x54 x138)) (x31 (x29 x138 x54)) (x63 (x29 x105 x38)) (x41 (x29 x38 x100)) (x79 (x29 x38 x54)) (x122 (= (x29 x54 x54) x54)) (x37 (x29 x105 x54)) (x50 (x29 x138 x100)) (x90 (x29 x38 x138)) (x78 (x29 x100 x38)) (x84 (x29 x54 x100)) (x154 (= (x29 x38 x38) x38)) (x148 (x29 x100 x138)) (x83 (x29 x105 x138)) (x112 (= x100 (x29 x100 x100))) (x99 (x29 x54 x38)) (x53 (x29 x100 x105)) (x118 (x29 x100 x54)) (x110 (= x105 (x29 x105 x105))) (x70 (x29 x105 x100)) (x61 (= (x29 x138 x138) x138)) (x136 (x29 x38 x105)) (x3 (x29 x138 x105)) (x94 (x29 x138 x38))) (and (and (and (and (or (not (= x84 x54)) (= x54 x118)) (and (or (= x37 x54) (not (= x54 x130))) (or (= x31 x54) (not (= x54 x152))))) (or (= x79 x54) (not (= x54 x99)))) (or (not x122) x122)) (and (and (and (or (not (= x118 x100)) (= x84 x100)) (and (and (or x112 (not x112)) (and (or (= x70 x100) (not (= x53 x100))) (or (not (= x100 x148)) (= x100 x50)))) (or (= x41 x100) (not (= x100 x78))))) (and (and (or (not (= x138 x31)) (= x152 x138)) (and (and (and (or x61 (not x61)) (or (not (= x138 x3)) (= x138 x83))) (or (not (= x50 x138)) (= x148 x138))) (or (= x138 x90) (not (= x94 x138))))) (and (or (= x130 x105) (not (= x37 x105))) (and (or (= x105 x136) (not (= x63 x105))) (and (or (not (= x70 x105)) (= x105 x53)) (and (or (not x110) x110) (or (not (= x83 x105)) (= x3 x105)))))))) (and (and (or (not x154) x154) (and (or (not (= x41 x38)) (= x78 x38)) (and (or (= x63 x38) (not (= x38 x136))) (or (= x38 x94) (not (= x90 x38)))))) (or (= x99 x38) (not (= x79 x38))))))))
(assert (not (and (and (= x54 (x29 x100 x138)) (and (= x100 (x29 x105 x105)) (= (x29 x138 x138) x105))) (= x38 (x29 x100 x54)))))
(assert (not (and (and (= x54 (x29 x105 x38)) (and (= (x29 x38 x38) x138) (= (x29 x138 x138) x105))) (= (x29 x105 x54) x100))))
(assert (not (and (= x54 (x29 x138 x38)) (and (and (= x138 (x29 x100 x100)) (= (x29 x105 x105) x100)) (= x38 (x29 x138 x105))))))
(assert (not (and (and (and (= (x29 x54 x54) x100) (= x38 (x29 x100 x100))) (= x105 (x29 x38 x54))) (= (x29 x38 x105) x138))))
(assert (not (and (= (x29 x100 x138) x105) (and (and (= (x29 x54 x54) x100) (= x54 (x29 x38 x38))) (= (x29 x100 x38) x138)))))
(assert (not (and (= x100 (x29 x105 x138)) (and (and (= (x29 x54 x54) x105) (= x54 (x29 x38 x38))) (= x138 (x29 x105 x38))))))
(assert (not (and (and (= (x29 x54 x138) x105) (and (= x54 (x29 x38 x38)) (= x38 (x29 x138 x138)))) (= (x29 x54 x105) x100))))
(assert (not (and (and (and (= (x29 x105 x105) x138) (= (x29 x138 x138) x100)) (= (x29 x100 x105) x38)) (= x54 (x29 x100 x38)))))
(assert (not (and (and (and (= x138 (x29 x38 x38)) (= (x29 x54 x54) x38)) (= x105 (x29 x138 x54))) (= (x29 x138 x105) x100))))
(assert (not (and (and (and (= (x29 x100 x100) x138) (= x100 (x29 x54 x54))) (= (x29 x138 x54) x105)) (= (x29 x138 x105) x38))))
(assert (not (and (= (x29 x38 x105) x54) (and (= (x29 x38 x100) x105) (and (= x38 (x29 x138 x138)) (= (x29 x100 x100) x138))))))
(assert (not (and (and (= x105 (x29 x54 x100)) (and (= (x29 x138 x138) x54) (= x138 (x29 x100 x100)))) (= (x29 x54 x105) x38))))
(assert (not (and (= x38 (x29 x105 x54)) (and (= x54 (x29 x105 x100)) (and (= x138 (x29 x100 x100)) (= x105 (x29 x138 x138)))))))
(assert (not (and (= (x29 x38 x105) x100) (and (and (= x54 (x29 x138 x138)) (= x38 (x29 x54 x54))) (= (x29 x38 x138) x105)))))
(assert (not (and (and (= x38 (x29 x100 x105)) (and (= x54 (x29 x105 x105)) (= (x29 x54 x54) x100))) (= x138 (x29 x100 x38)))))
(assert (not (and (= (x29 x38 x105) x54) (and (and (= x38 (x29 x100 x100)) (= (x29 x138 x138) x100)) (= x105 (x29 x38 x138))))))
(assert (not (and (and (= (x29 x105 x54) x100) (and (= x105 (x29 x38 x38)) (= (x29 x54 x54) x38))) (= x138 (x29 x105 x100)))))
(assert (not (and (and (= (x29 x38 x100) x138) (and (= (x29 x100 x100) x54) (= x38 (x29 x54 x54)))) (= x105 (x29 x38 x138)))))
(assert (not (and (and (= x100 (x29 x38 x138)) (and (= (x29 x138 x138) x54) (= x38 (x29 x54 x54)))) (= x105 (x29 x38 x100)))))
(assert (not (and (= x138 (x29 x100 x38)) (and (= x38 (x29 x100 x54)) (and (= x105 (x29 x54 x54)) (= (x29 x105 x105) x100))))))
(assert (not (and (= (x29 x54 x100) x38) (and (and (= (x29 x138 x138) x54) (= x138 (x29 x105 x105))) (= x100 (x29 x54 x105))))))
(assert (not (and (= x38 (x29 x100 x105)) (and (= (x29 x100 x138) x105) (and (= x100 (x29 x54 x54)) (= (x29 x138 x138) x54))))))
(assert (not (and (and (and (= (x29 x100 x100) x54) (= x100 (x29 x105 x105))) (= x138 (x29 x54 x105))) (= x38 (x29 x54 x138)))))
(assert (and (or (or (= x38 (x29 (x29 x54 x38) x54)) (or (= x100 (x29 (x29 x54 x100) x54)) (or (= x138 (x29 (x29 x54 x138) x54)) (= (x29 (x29 x54 x105) x54) x105)))) (= x54 (x29 (x29 x54 x54) x54))) (and (or (or (= x38 (x29 (x29 x38 x38) x38)) (or (= x100 (x29 (x29 x38 x100) x38)) (or (= x138 (x29 (x29 x38 x138) x38)) (= (x29 (x29 x38 x105) x38) x105)))) (= x54 (x29 (x29 x38 x54) x38))) (and (or (= x54 (x29 (x29 x100 x54) x100)) (or (or (or (= x138 (x29 (x29 x100 x138) x100)) (= x105 (x29 (x29 x100 x105) x100))) (= x100 (x29 (x29 x100 x100) x100))) (= x38 (x29 (x29 x100 x38) x100)))) (and (or (or (or (or (= (x29 (x29 x138 x138) x138) x138) (= (x29 (x29 x138 x105) x138) x105)) (= x100 (x29 (x29 x138 x100) x138))) (= (x29 (x29 x138 x38) x138) x38)) (= x54 (x29 (x29 x138 x54) x138))) (or (= (x29 (x29 x105 x54) x105) x54) (or (or (= x100 (x29 (x29 x105 x100) x105)) (or (= x138 (x29 (x29 x105 x138) x105)) (= (x29 (x29 x105 x105) x105) x105))) (= (x29 (x29 x105 x38) x105) x38))))))))
(assert (not (and (= x105 (x29 x138 x38)) (and (= x38 (x29 x138 x100)) (and (= x54 (x29 x100 x100)) (= x138 (x29 x54 x54)))))))
(assert (not (and (and (= x100 (x29 x138 x38)) (and (= x138 (x29 x105 x105)) (= (x29 x38 x38) x105))) (= x54 (x29 x138 x100)))))
(assert (not (and (and (and (= x38 (x29 x100 x100)) (= (x29 x38 x38) x138)) (= (x29 x138 x100) x105)) (= x54 (x29 x138 x105)))))
(assert (not (and (and (= x38 (x29 x105 x54)) (and (= x105 (x29 x138 x138)) (= (x29 x54 x54) x138))) (= x100 (x29 x105 x38)))))
(assert (not (and (and (and (= x100 (x29 x38 x38)) (= x138 (x29 x100 x100))) (= (x29 x138 x38) x105)) (= x54 (x29 x138 x105)))))
(assert (not (and (= (x29 x138 x38) x100) (and (= x38 (x29 x138 x105)) (and (= (x29 x105 x105) x54) (= x138 (x29 x54 x54)))))))
(assert (not (and (and (= x138 (x29 x100 x54)) (and (= (x29 x54 x54) x105) (= (x29 x105 x105) x100))) (= x38 (x29 x100 x138)))))
(assert (not (and (= (x29 x100 x38) x105) (and (and (= x100 (x29 x138 x138)) (= (x29 x54 x54) x138)) (= (x29 x100 x54) x38)))))
(assert (not (and (and (= (x29 x38 x54) x138) (and (= x100 (x29 x54 x54)) (= (x29 x100 x100) x38))) (= (x29 x38 x138) x105))))
(assert (not (and (= (x29 x105 x138) x54) (and (and (= x105 (x29 x100 x100)) (= (x29 x38 x38) x100)) (= x138 (x29 x105 x38))))))
(assert (or (or (or (= (x29 x100 x100) x100) (or (= x105 (x29 x105 x105)) (= x138 (x29 x138 x138)))) (= x38 (x29 x38 x38))) (= (x29 x54 x54) x54)))
(assert (not (and (= (x29 x54 x138) x105) (and (= x138 (x29 x54 x38)) (and (= x100 (x29 x38 x38)) (= x54 (x29 x100 x100)))))))
(check-sat)
(exit)
